* #variable= 10 #constraint= 10 #product= 48 sizeproduct= 96
****************************************
* begin normalizer comments
* category= OPT-SMALLINT-NLC
* end normalizer comments
* Source
* http://www.cril.univ-artois.fr/PB07/
* Best known objective: 2.0
* 
****************************************
min: +1 x1 +1 x2 +1 x3 +1 x4 +1 x5 +1 x6 +1 x7 +1 x8 +1 x9 +1 x10 ;
+1 ~x1 x4 +1 ~x1 x7 +1 ~x1 x8 +1 ~x1 x6 +1 ~x1 x3 +1 ~x1 x5 +1 ~x1 x9 +1 x1 >= 1 ;
+1 ~x2 x4 +1 ~x2 x6 +1 ~x2 x7 +1 ~x2 x3 +1 ~x2 x5 +1 x2 >= 1 ;
+1 x1 ~x3 +1 x2 ~x3 +1 ~x3 x10 +1 ~x3 x8 +1 ~x3 x5 +1 ~x3 x9 +1 x3 >= 1 ;
+1 x1 ~x4 +1 x2 ~x4 +1 ~x4 x10 +1 ~x4 x7 +1 ~x4 x9 +1 x4 >= 1 ;
+1 x1 ~x5 +1 x2 ~x5 +1 x3 ~x5 +1 ~x5 x7 +1 x5 >= 1 ;
+1 x1 ~x6 +1 x2 ~x6 +1 ~x6 x9 +1 ~x6 x8 +1 ~x6 x10 +1 x6 >= 1 ;
+1 x1 ~x7 +1 x2 ~x7 +1 x4 ~x7 +1 x5 ~x7 +1 x7 >= 1 ;
+1 x1 ~x8 +1 x3 ~x8 +1 x6 ~x8 +1 ~x8 x10 +1 x8 >= 1 ;
+1 x1 ~x9 +1 x3 ~x9 +1 x4 ~x9 +1 x6 ~x9 +1 x9 >= 1 ;
+1 x3 ~x10 +1 x4 ~x10 +1 x6 ~x10 +1 x8 ~x10 +1 x10 >= 1 ;
